40 63 58 99 81 5 10 17 7 70 94 36 3 77 13 96 90 42 93 15 47 39 67 27 73 97 9 87 24 74 32 62 43 82 33 51 98 6 56 66 41 19 92 49 57 88 12 0 86 75 72 91 69 84 48 37 65 29 61 79 20 1 38 83 34 25 4 31 30 80 18 54 2 21 59 60 11 78 53 45 85 23 76 68 22 89 55 64 8 52 71 95 28 35 46 44 16 14 50 26 

